p cnf 368 2980
1 0
74 0
139 0
132 0
205 0
174 0
-1 -361 0
-2 -362 0
-3 -363 0
-4 -364 0
-5 -365 0
-6 -366 0
-7 -367 0
-8 -368 0
-1 -17 0
-2 -18 0
-3 -19 0
-4 -20 0
-5 -21 0
-6 -22 0
-7 -23 0
-8 -24 0
-1 -177 0
-2 -178 0
-3 -179 0
-4 -180 0
-5 -181 0
-6 -182 0
-7 -183 0
-8 -184 0
-1 -105 0
-2 -106 0
-3 -107 0
-4 -108 0
-5 -109 0
-6 -110 0
-7 -111 0
-8 -112 0
-1 -97 0
-2 -98 0
-3 -99 0
-4 -100 0
-5 -101 0
-6 -102 0
-7 -103 0
-8 -104 0
-1 -145 0
-2 -146 0
-3 -147 0
-4 -148 0
-5 -149 0
-6 -150 0
-7 -151 0
-8 -152 0
-1 -73 0
-2 -74 0
-3 -75 0
-4 -76 0
-5 -77 0
-6 -78 0
-7 -79 0
-8 -80 0
-1 -169 0
-2 -170 0
-3 -171 0
-4 -172 0
-5 -173 0
-6 -174 0
-7 -175 0
-8 -176 0
-1 -201 0
-2 -202 0
-3 -203 0
-4 -204 0
-5 -205 0
-6 -206 0
-7 -207 0
-8 -208 0
-1 -129 0
-2 -130 0
-3 -131 0
-4 -132 0
-5 -133 0
-6 -134 0
-7 -135 0
-8 -136 0
-1 -137 0
-2 -138 0
-3 -139 0
-4 -140 0
-5 -141 0
-6 -142 0
-7 -143 0
-8 -144 0
-1 -41 0
-2 -42 0
-3 -43 0
-4 -44 0
-5 -45 0
-6 -46 0
-7 -47 0
-8 -48 0
-1 -297 0
-2 -298 0
-3 -299 0
-4 -300 0
-5 -301 0
-6 -302 0
-7 -303 0
-8 -304 0
-1 -113 0
-2 -114 0
-3 -115 0
-4 -116 0
-5 -117 0
-6 -118 0
-7 -119 0
-8 -120 0
-1 -273 0
-2 -274 0
-3 -275 0
-4 -276 0
-5 -277 0
-6 -278 0
-7 -279 0
-8 -280 0
-9 -225 0
-10 -226 0
-11 -227 0
-12 -228 0
-13 -229 0
-14 -230 0
-15 -231 0
-16 -232 0
-9 -345 0
-10 -346 0
-11 -347 0
-12 -348 0
-13 -349 0
-14 -350 0
-15 -351 0
-16 -352 0
-9 -153 0
-10 -154 0
-11 -155 0
-12 -156 0
-13 -157 0
-14 -158 0
-15 -159 0
-16 -160 0
-9 -89 0
-10 -90 0
-11 -91 0
-12 -92 0
-13 -93 0
-14 -94 0
-15 -95 0
-16 -96 0
-9 -121 0
-10 -122 0
-11 -123 0
-12 -124 0
-13 -125 0
-14 -126 0
-15 -127 0
-16 -128 0
-9 -57 0
-10 -58 0
-11 -59 0
-12 -60 0
-13 -61 0
-14 -62 0
-15 -63 0
-16 -64 0
-9 -233 0
-10 -234 0
-11 -235 0
-12 -236 0
-13 -237 0
-14 -238 0
-15 -239 0
-16 -240 0
-9 -241 0
-10 -242 0
-11 -243 0
-12 -244 0
-13 -245 0
-14 -246 0
-15 -247 0
-16 -248 0
-9 -265 0
-10 -266 0
-11 -267 0
-12 -268 0
-13 -269 0
-14 -270 0
-15 -271 0
-16 -272 0
-9 -313 0
-10 -314 0
-11 -315 0
-12 -316 0
-13 -317 0
-14 -318 0
-15 -319 0
-16 -320 0
-9 -209 0
-10 -210 0
-11 -211 0
-12 -212 0
-13 -213 0
-14 -214 0
-15 -215 0
-16 -216 0
-9 -81 0
-10 -82 0
-11 -83 0
-12 -84 0
-13 -85 0
-14 -86 0
-15 -87 0
-16 -88 0
-9 -305 0
-10 -306 0
-11 -307 0
-12 -308 0
-13 -309 0
-14 -310 0
-15 -311 0
-16 -312 0
-9 -25 0
-10 -26 0
-11 -27 0
-12 -28 0
-13 -29 0
-14 -30 0
-15 -31 0
-16 -32 0
-9 -321 0
-10 -322 0
-11 -323 0
-12 -324 0
-13 -325 0
-14 -326 0
-15 -327 0
-16 -328 0
-9 -65 0
-10 -66 0
-11 -67 0
-12 -68 0
-13 -69 0
-14 -70 0
-15 -71 0
-16 -72 0
-17 -345 0
-18 -346 0
-19 -347 0
-20 -348 0
-21 -349 0
-22 -350 0
-23 -351 0
-24 -352 0
-17 -361 0
-18 -362 0
-19 -363 0
-20 -364 0
-21 -365 0
-22 -366 0
-23 -367 0
-24 -368 0
-17 -49 0
-18 -50 0
-19 -51 0
-20 -52 0
-21 -53 0
-22 -54 0
-23 -55 0
-24 -56 0
-17 -177 0
-18 -178 0
-19 -179 0
-20 -180 0
-21 -181 0
-22 -182 0
-23 -183 0
-24 -184 0
-17 -105 0
-18 -106 0
-19 -107 0
-20 -108 0
-21 -109 0
-22 -110 0
-23 -111 0
-24 -112 0
-17 -129 0
-18 -130 0
-19 -131 0
-20 -132 0
-21 -133 0
-22 -134 0
-23 -135 0
-24 -136 0
-17 -121 0
-18 -122 0
-19 -123 0
-20 -124 0
-21 -125 0
-22 -126 0
-23 -127 0
-24 -128 0
-17 -57 0
-18 -58 0
-19 -59 0
-20 -60 0
-21 -61 0
-22 -62 0
-23 -63 0
-24 -64 0
-17 -97 0
-18 -98 0
-19 -99 0
-20 -100 0
-21 -101 0
-22 -102 0
-23 -103 0
-24 -104 0
-17 -217 0
-18 -218 0
-19 -219 0
-20 -220 0
-21 -221 0
-22 -222 0
-23 -223 0
-24 -224 0
-17 -169 0
-18 -170 0
-19 -171 0
-20 -172 0
-21 -173 0
-22 -174 0
-23 -175 0
-24 -176 0
-17 -353 0
-18 -354 0
-19 -355 0
-20 -356 0
-21 -357 0
-22 -358 0
-23 -359 0
-24 -360 0
-17 -137 0
-18 -138 0
-19 -139 0
-20 -140 0
-21 -141 0
-22 -142 0
-23 -143 0
-24 -144 0
-17 -273 0
-18 -274 0
-19 -275 0
-20 -276 0
-21 -277 0
-22 -278 0
-23 -279 0
-24 -280 0
-25 -225 0
-26 -226 0
-27 -227 0
-28 -228 0
-29 -229 0
-30 -230 0
-31 -231 0
-32 -232 0
-25 -345 0
-26 -346 0
-27 -347 0
-28 -348 0
-29 -349 0
-30 -350 0
-31 -351 0
-32 -352 0
-25 -153 0
-26 -154 0
-27 -155 0
-28 -156 0
-29 -157 0
-30 -158 0
-31 -159 0
-32 -160 0
-25 -89 0
-26 -90 0
-27 -91 0
-28 -92 0
-29 -93 0
-30 -94 0
-31 -95 0
-32 -96 0
-25 -233 0
-26 -234 0
-27 -235 0
-28 -236 0
-29 -237 0
-30 -238 0
-31 -239 0
-32 -240 0
-25 -33 0
-26 -34 0
-27 -35 0
-28 -36 0
-29 -37 0
-30 -38 0
-31 -39 0
-32 -40 0
-25 -241 0
-26 -242 0
-27 -243 0
-28 -244 0
-29 -245 0
-30 -246 0
-31 -247 0
-32 -248 0
-25 -265 0
-26 -266 0
-27 -267 0
-28 -268 0
-29 -269 0
-30 -270 0
-31 -271 0
-32 -272 0
-25 -257 0
-26 -258 0
-27 -259 0
-28 -260 0
-29 -261 0
-30 -262 0
-31 -263 0
-32 -264 0
-25 -313 0
-26 -314 0
-27 -315 0
-28 -316 0
-29 -317 0
-30 -318 0
-31 -319 0
-32 -320 0
-25 -161 0
-26 -162 0
-27 -163 0
-28 -164 0
-29 -165 0
-30 -166 0
-31 -167 0
-32 -168 0
-25 -209 0
-26 -210 0
-27 -211 0
-28 -212 0
-29 -213 0
-30 -214 0
-31 -215 0
-32 -216 0
-25 -81 0
-26 -82 0
-27 -83 0
-28 -84 0
-29 -85 0
-30 -86 0
-31 -87 0
-32 -88 0
-25 -305 0
-26 -306 0
-27 -307 0
-28 -308 0
-29 -309 0
-30 -310 0
-31 -311 0
-32 -312 0
-25 -337 0
-26 -338 0
-27 -339 0
-28 -340 0
-29 -341 0
-30 -342 0
-31 -343 0
-32 -344 0
-25 -321 0
-26 -322 0
-27 -323 0
-28 -324 0
-29 -325 0
-30 -326 0
-31 -327 0
-32 -328 0
-33 -145 0
-34 -146 0
-35 -147 0
-36 -148 0
-37 -149 0
-38 -150 0
-39 -151 0
-40 -152 0
-33 -241 0
-34 -242 0
-35 -243 0
-36 -244 0
-37 -245 0
-38 -246 0
-39 -247 0
-40 -248 0
-33 -265 0
-34 -266 0
-35 -267 0
-36 -268 0
-37 -269 0
-38 -270 0
-39 -271 0
-40 -272 0
-33 -257 0
-34 -258 0
-35 -259 0
-36 -260 0
-37 -261 0
-38 -262 0
-39 -263 0
-40 -264 0
-33 -337 0
-34 -338 0
-35 -339 0
-36 -340 0
-37 -341 0
-38 -342 0
-39 -343 0
-40 -344 0
-33 -249 0
-34 -250 0
-35 -251 0
-36 -252 0
-37 -253 0
-38 -254 0
-39 -255 0
-40 -256 0
-33 -185 0
-34 -186 0
-35 -187 0
-36 -188 0
-37 -189 0
-38 -190 0
-39 -191 0
-40 -192 0
-33 -281 0
-34 -282 0
-35 -283 0
-36 -284 0
-37 -285 0
-38 -286 0
-39 -287 0
-40 -288 0
-33 -313 0
-34 -314 0
-35 -315 0
-36 -316 0
-37 -317 0
-38 -318 0
-39 -319 0
-40 -320 0
-33 -161 0
-34 -162 0
-35 -163 0
-36 -164 0
-37 -165 0
-38 -166 0
-39 -167 0
-40 -168 0
-33 -305 0
-34 -306 0
-35 -307 0
-36 -308 0
-37 -309 0
-38 -310 0
-39 -311 0
-40 -312 0
-33 -41 0
-34 -42 0
-35 -43 0
-36 -44 0
-37 -45 0
-38 -46 0
-39 -47 0
-40 -48 0
-33 -329 0
-34 -330 0
-35 -331 0
-36 -332 0
-37 -333 0
-38 -334 0
-39 -335 0
-40 -336 0
-33 -321 0
-34 -322 0
-35 -323 0
-36 -324 0
-37 -325 0
-38 -326 0
-39 -327 0
-40 -328 0
-33 -113 0
-34 -114 0
-35 -115 0
-36 -116 0
-37 -117 0
-38 -118 0
-39 -119 0
-40 -120 0
-41 -105 0
-42 -106 0
-43 -107 0
-44 -108 0
-45 -109 0
-46 -110 0
-47 -111 0
-48 -112 0
-41 -97 0
-42 -98 0
-43 -99 0
-44 -100 0
-45 -101 0
-46 -102 0
-47 -103 0
-48 -104 0
-41 -145 0
-42 -146 0
-43 -147 0
-44 -148 0
-45 -149 0
-46 -150 0
-47 -151 0
-48 -152 0
-41 -217 0
-42 -218 0
-43 -219 0
-44 -220 0
-45 -221 0
-46 -222 0
-47 -223 0
-48 -224 0
-41 -73 0
-42 -74 0
-43 -75 0
-44 -76 0
-45 -77 0
-46 -78 0
-47 -79 0
-48 -80 0
-41 -169 0
-42 -170 0
-43 -171 0
-44 -172 0
-45 -173 0
-46 -174 0
-47 -175 0
-48 -176 0
-41 -201 0
-42 -202 0
-43 -203 0
-44 -204 0
-45 -205 0
-46 -206 0
-47 -207 0
-48 -208 0
-41 -257 0
-42 -258 0
-43 -259 0
-44 -260 0
-45 -261 0
-46 -262 0
-47 -263 0
-48 -264 0
-41 -281 0
-42 -282 0
-43 -283 0
-44 -284 0
-45 -285 0
-46 -286 0
-47 -287 0
-48 -288 0
-41 -249 0
-42 -250 0
-43 -251 0
-44 -252 0
-45 -253 0
-46 -254 0
-47 -255 0
-48 -256 0
-41 -137 0
-42 -138 0
-43 -139 0
-44 -140 0
-45 -141 0
-46 -142 0
-47 -143 0
-48 -144 0
-41 -113 0
-42 -114 0
-43 -115 0
-44 -116 0
-45 -117 0
-46 -118 0
-47 -119 0
-48 -120 0
-41 -185 0
-42 -186 0
-43 -187 0
-44 -188 0
-45 -189 0
-46 -190 0
-47 -191 0
-48 -192 0
-41 -337 0
-42 -338 0
-43 -339 0
-44 -340 0
-45 -341 0
-46 -342 0
-47 -343 0
-48 -344 0
-41 -329 0
-42 -330 0
-43 -331 0
-44 -332 0
-45 -333 0
-46 -334 0
-47 -335 0
-48 -336 0
-49 -225 0
-50 -226 0
-51 -227 0
-52 -228 0
-53 -229 0
-54 -230 0
-55 -231 0
-56 -232 0
-49 -345 0
-50 -346 0
-51 -347 0
-52 -348 0
-53 -349 0
-54 -350 0
-55 -351 0
-56 -352 0
-49 -153 0
-50 -154 0
-51 -155 0
-52 -156 0
-53 -157 0
-54 -158 0
-55 -159 0
-56 -160 0
-49 -89 0
-50 -90 0
-51 -91 0
-52 -92 0
-53 -93 0
-54 -94 0
-55 -95 0
-56 -96 0
-49 -361 0
-50 -362 0
-51 -363 0
-52 -364 0
-53 -365 0
-54 -366 0
-55 -367 0
-56 -368 0
-49 -177 0
-50 -178 0
-51 -179 0
-52 -180 0
-53 -181 0
-54 -182 0
-55 -183 0
-56 -184 0
-49 -121 0
-50 -122 0
-51 -123 0
-52 -124 0
-53 -125 0
-54 -126 0
-55 -127 0
-56 -128 0
-49 -353 0
-50 -354 0
-51 -355 0
-52 -356 0
-53 -357 0
-54 -358 0
-55 -359 0
-56 -360 0
-49 -105 0
-50 -106 0
-51 -107 0
-52 -108 0
-53 -109 0
-54 -110 0
-55 -111 0
-56 -112 0
-49 -57 0
-50 -58 0
-51 -59 0
-52 -60 0
-53 -61 0
-54 -62 0
-55 -63 0
-56 -64 0
-49 -233 0
-50 -234 0
-51 -235 0
-52 -236 0
-53 -237 0
-54 -238 0
-55 -239 0
-56 -240 0
-49 -97 0
-50 -98 0
-51 -99 0
-52 -100 0
-53 -101 0
-54 -102 0
-55 -103 0
-56 -104 0
-49 -217 0
-50 -218 0
-51 -219 0
-52 -220 0
-53 -221 0
-54 -222 0
-55 -223 0
-56 -224 0
-49 -129 0
-50 -130 0
-51 -131 0
-52 -132 0
-53 -133 0
-54 -134 0
-55 -135 0
-56 -136 0
-49 -289 0
-50 -290 0
-51 -291 0
-52 -292 0
-53 -293 0
-54 -294 0
-55 -295 0
-56 -296 0
-49 -273 0
-50 -274 0
-51 -275 0
-52 -276 0
-53 -277 0
-54 -278 0
-55 -279 0
-56 -280 0
-57 -345 0
-58 -346 0
-59 -347 0
-60 -348 0
-61 -349 0
-62 -350 0
-63 -351 0
-64 -352 0
-57 -89 0
-58 -90 0
-59 -91 0
-60 -92 0
-61 -93 0
-62 -94 0
-63 -95 0
-64 -96 0
-57 -361 0
-58 -362 0
-59 -363 0
-60 -364 0
-61 -365 0
-62 -366 0
-63 -367 0
-64 -368 0
-57 -121 0
-58 -122 0
-59 -123 0
-60 -124 0
-61 -125 0
-62 -126 0
-63 -127 0
-64 -128 0
-57 -233 0
-58 -234 0
-59 -235 0
-60 -236 0
-61 -237 0
-62 -238 0
-63 -239 0
-64 -240 0
-57 -65 0
-58 -66 0
-59 -67 0
-60 -68 0
-61 -69 0
-62 -70 0
-63 -71 0
-64 -72 0
-57 -273 0
-58 -274 0
-59 -275 0
-60 -276 0
-61 -277 0
-62 -278 0
-63 -279 0
-64 -280 0
-57 -169 0
-58 -170 0
-59 -171 0
-60 -172 0
-61 -173 0
-62 -174 0
-63 -175 0
-64 -176 0
-57 -209 0
-58 -210 0
-59 -211 0
-60 -212 0
-61 -213 0
-62 -214 0
-63 -215 0
-64 -216 0
-57 -81 0
-58 -82 0
-59 -83 0
-60 -84 0
-61 -85 0
-62 -86 0
-63 -87 0
-64 -88 0
-57 -129 0
-58 -130 0
-59 -131 0
-60 -132 0
-61 -133 0
-62 -134 0
-63 -135 0
-64 -136 0
-57 -297 0
-58 -298 0
-59 -299 0
-60 -300 0
-61 -301 0
-62 -302 0
-63 -303 0
-64 -304 0
-65 -89 0
-66 -90 0
-67 -91 0
-68 -92 0
-69 -93 0
-70 -94 0
-71 -95 0
-72 -96 0
-65 -361 0
-66 -362 0
-67 -363 0
-68 -364 0
-69 -365 0
-70 -366 0
-71 -367 0
-72 -368 0
-65 -121 0
-66 -122 0
-67 -123 0
-68 -124 0
-69 -125 0
-70 -126 0
-71 -127 0
-72 -128 0
-65 -233 0
-66 -234 0
-67 -235 0
-68 -236 0
-69 -237 0
-70 -238 0
-71 -239 0
-72 -240 0
-65 -169 0
-66 -170 0
-67 -171 0
-68 -172 0
-69 -173 0
-70 -174 0
-71 -175 0
-72 -176 0
-65 -201 0
-66 -202 0
-67 -203 0
-68 -204 0
-69 -205 0
-70 -206 0
-71 -207 0
-72 -208 0
-65 -209 0
-66 -210 0
-67 -211 0
-68 -212 0
-69 -213 0
-70 -214 0
-71 -215 0
-72 -216 0
-65 -81 0
-66 -82 0
-67 -83 0
-68 -84 0
-69 -85 0
-70 -86 0
-71 -87 0
-72 -88 0
-65 -305 0
-66 -306 0
-67 -307 0
-68 -308 0
-69 -309 0
-70 -310 0
-71 -311 0
-72 -312 0
-65 -129 0
-66 -130 0
-67 -131 0
-68 -132 0
-69 -133 0
-70 -134 0
-71 -135 0
-72 -136 0
-65 -193 0
-66 -194 0
-67 -195 0
-68 -196 0
-69 -197 0
-70 -198 0
-71 -199 0
-72 -200 0
-65 -321 0
-66 -322 0
-67 -323 0
-68 -324 0
-69 -325 0
-70 -326 0
-71 -327 0
-72 -328 0
-65 -297 0
-66 -298 0
-67 -299 0
-68 -300 0
-69 -301 0
-70 -302 0
-71 -303 0
-72 -304 0
-65 -273 0
-66 -274 0
-67 -275 0
-68 -276 0
-69 -277 0
-70 -278 0
-71 -279 0
-72 -280 0
-73 -105 0
-74 -106 0
-75 -107 0
-76 -108 0
-77 -109 0
-78 -110 0
-79 -111 0
-80 -112 0
-73 -97 0
-74 -98 0
-75 -99 0
-76 -100 0
-77 -101 0
-78 -102 0
-79 -103 0
-80 -104 0
-73 -145 0
-74 -146 0
-75 -147 0
-76 -148 0
-77 -149 0
-78 -150 0
-79 -151 0
-80 -152 0
-73 -169 0
-74 -170 0
-75 -171 0
-76 -172 0
-77 -173 0
-78 -174 0
-79 -175 0
-80 -176 0
-73 -201 0
-74 -202 0
-75 -203 0
-76 -204 0
-77 -205 0
-78 -206 0
-79 -207 0
-80 -208 0
-73 -137 0
-74 -138 0
-75 -139 0
-76 -140 0
-77 -141 0
-78 -142 0
-79 -143 0
-80 -144 0
-73 -113 0
-74 -114 0
-75 -115 0
-76 -116 0
-77 -117 0
-78 -118 0
-79 -119 0
-80 -120 0
-73 -249 0
-74 -250 0
-75 -251 0
-76 -252 0
-77 -253 0
-78 -254 0
-79 -255 0
-80 -256 0
-73 -129 0
-74 -130 0
-75 -131 0
-76 -132 0
-77 -133 0
-78 -134 0
-79 -135 0
-80 -136 0
-73 -193 0
-74 -194 0
-75 -195 0
-76 -196 0
-77 -197 0
-78 -198 0
-79 -199 0
-80 -200 0
-73 -329 0
-74 -330 0
-75 -331 0
-76 -332 0
-77 -333 0
-78 -334 0
-79 -335 0
-80 -336 0
-73 -297 0
-74 -298 0
-75 -299 0
-76 -300 0
-77 -301 0
-78 -302 0
-79 -303 0
-80 -304 0
-73 -273 0
-74 -274 0
-75 -275 0
-76 -276 0
-77 -277 0
-78 -278 0
-79 -279 0
-80 -280 0
-73 -185 0
-74 -186 0
-75 -187 0
-76 -188 0
-77 -189 0
-78 -190 0
-79 -191 0
-80 -192 0
-81 -225 0
-82 -226 0
-83 -227 0
-84 -228 0
-85 -229 0
-86 -230 0
-87 -231 0
-88 -232 0
-81 -89 0
-82 -90 0
-83 -91 0
-84 -92 0
-85 -93 0
-86 -94 0
-87 -95 0
-88 -96 0
-81 -121 0
-82 -122 0
-83 -123 0
-84 -124 0
-85 -125 0
-86 -126 0
-87 -127 0
-88 -128 0
-81 -233 0
-82 -234 0
-83 -235 0
-84 -236 0
-85 -237 0
-86 -238 0
-87 -239 0
-88 -240 0
-81 -241 0
-82 -242 0
-83 -243 0
-84 -244 0
-85 -245 0
-86 -246 0
-87 -247 0
-88 -248 0
-81 -209 0
-82 -210 0
-83 -211 0
-84 -212 0
-85 -213 0
-86 -214 0
-87 -215 0
-88 -216 0
-81 -305 0
-82 -306 0
-83 -307 0
-84 -308 0
-85 -309 0
-86 -310 0
-87 -311 0
-88 -312 0
-81 -193 0
-82 -194 0
-83 -195 0
-84 -196 0
-85 -197 0
-86 -198 0
-87 -199 0
-88 -200 0
-81 -321 0
-82 -322 0
-83 -323 0
-84 -324 0
-85 -325 0
-86 -326 0
-87 -327 0
-88 -328 0
-81 -297 0
-82 -298 0
-83 -299 0
-84 -300 0
-85 -301 0
-86 -302 0
-87 -303 0
-88 -304 0
-81 -273 0
-82 -274 0
-83 -275 0
-84 -276 0
-85 -277 0
-86 -278 0
-87 -279 0
-88 -280 0
-89 -225 0
-90 -226 0
-91 -227 0
-92 -228 0
-93 -229 0
-94 -230 0
-95 -231 0
-96 -232 0
-89 -345 0
-90 -346 0
-91 -347 0
-92 -348 0
-93 -349 0
-94 -350 0
-95 -351 0
-96 -352 0
-89 -153 0
-90 -154 0
-91 -155 0
-92 -156 0
-93 -157 0
-94 -158 0
-95 -159 0
-96 -160 0
-89 -121 0
-90 -122 0
-91 -123 0
-92 -124 0
-93 -125 0
-94 -126 0
-95 -127 0
-96 -128 0
-89 -233 0
-90 -234 0
-91 -235 0
-92 -236 0
-93 -237 0
-94 -238 0
-95 -239 0
-96 -240 0
-89 -361 0
-90 -362 0
-91 -363 0
-92 -364 0
-93 -365 0
-94 -366 0
-95 -367 0
-96 -368 0
-89 -353 0
-90 -354 0
-91 -355 0
-92 -356 0
-93 -357 0
-94 -358 0
-95 -359 0
-96 -360 0
-89 -313 0
-90 -314 0
-91 -315 0
-92 -316 0
-93 -317 0
-94 -318 0
-95 -319 0
-96 -320 0
-89 -305 0
-90 -306 0
-91 -307 0
-92 -308 0
-93 -309 0
-94 -310 0
-95 -311 0
-96 -312 0
-97 -177 0
-98 -178 0
-99 -179 0
-100 -180 0
-101 -181 0
-102 -182 0
-103 -183 0
-104 -184 0
-97 -105 0
-98 -106 0
-99 -107 0
-100 -108 0
-101 -109 0
-102 -110 0
-103 -111 0
-104 -112 0
-97 -145 0
-98 -146 0
-99 -147 0
-100 -148 0
-101 -149 0
-102 -150 0
-103 -151 0
-104 -152 0
-97 -217 0
-98 -218 0
-99 -219 0
-100 -220 0
-101 -221 0
-102 -222 0
-103 -223 0
-104 -224 0
-97 -137 0
-98 -138 0
-99 -139 0
-100 -140 0
-101 -141 0
-102 -142 0
-103 -143 0
-104 -144 0
-97 -353 0
-98 -354 0
-99 -355 0
-100 -356 0
-101 -357 0
-102 -358 0
-103 -359 0
-104 -360 0
-97 -281 0
-98 -282 0
-99 -283 0
-100 -284 0
-101 -285 0
-102 -286 0
-103 -287 0
-104 -288 0
-97 -249 0
-98 -250 0
-99 -251 0
-100 -252 0
-101 -253 0
-102 -254 0
-103 -255 0
-104 -256 0
-97 -129 0
-98 -130 0
-99 -131 0
-100 -132 0
-101 -133 0
-102 -134 0
-103 -135 0
-104 -136 0
-97 -289 0
-98 -290 0
-99 -291 0
-100 -292 0
-101 -293 0
-102 -294 0
-103 -295 0
-104 -296 0
-105 -361 0
-106 -362 0
-107 -363 0
-108 -364 0
-109 -365 0
-110 -366 0
-111 -367 0
-112 -368 0
-105 -177 0
-106 -178 0
-107 -179 0
-108 -180 0
-109 -181 0
-110 -182 0
-111 -183 0
-112 -184 0
-105 -129 0
-106 -130 0
-107 -131 0
-108 -132 0
-109 -133 0
-110 -134 0
-111 -135 0
-112 -136 0
-105 -137 0
-106 -138 0
-107 -139 0
-108 -140 0
-109 -141 0
-110 -142 0
-111 -143 0
-112 -144 0
-105 -145 0
-106 -146 0
-107 -147 0
-108 -148 0
-109 -149 0
-110 -150 0
-111 -151 0
-112 -152 0
-105 -217 0
-106 -218 0
-107 -219 0
-108 -220 0
-109 -221 0
-110 -222 0
-111 -223 0
-112 -224 0
-105 -169 0
-106 -170 0
-107 -171 0
-108 -172 0
-109 -173 0
-110 -174 0
-111 -175 0
-112 -176 0
-105 -353 0
-106 -354 0
-107 -355 0
-108 -356 0
-109 -357 0
-110 -358 0
-111 -359 0
-112 -360 0
-105 -273 0
-106 -274 0
-107 -275 0
-108 -276 0
-109 -277 0
-110 -278 0
-111 -279 0
-112 -280 0
-113 -145 0
-114 -146 0
-115 -147 0
-116 -148 0
-117 -149 0
-118 -150 0
-119 -151 0
-120 -152 0
-113 -169 0
-114 -170 0
-115 -171 0
-116 -172 0
-117 -173 0
-118 -174 0
-119 -175 0
-120 -176 0
-113 -201 0
-114 -202 0
-115 -203 0
-116 -204 0
-117 -205 0
-118 -206 0
-119 -207 0
-120 -208 0
-113 -257 0
-114 -258 0
-115 -259 0
-116 -260 0
-117 -261 0
-118 -262 0
-119 -263 0
-120 -264 0
-113 -249 0
-114 -250 0
-115 -251 0
-116 -252 0
-117 -253 0
-118 -254 0
-119 -255 0
-120 -256 0
-113 -193 0
-114 -194 0
-115 -195 0
-116 -196 0
-117 -197 0
-118 -198 0
-119 -199 0
-120 -200 0
-113 -329 0
-114 -330 0
-115 -331 0
-116 -332 0
-117 -333 0
-118 -334 0
-119 -335 0
-120 -336 0
-113 -321 0
-114 -322 0
-115 -323 0
-116 -324 0
-117 -325 0
-118 -326 0
-119 -327 0
-120 -328 0
-113 -297 0
-114 -298 0
-115 -299 0
-116 -300 0
-117 -301 0
-118 -302 0
-119 -303 0
-120 -304 0
-113 -137 0
-114 -138 0
-115 -139 0
-116 -140 0
-117 -141 0
-118 -142 0
-119 -143 0
-120 -144 0
-113 -185 0
-114 -186 0
-115 -187 0
-116 -188 0
-117 -189 0
-118 -190 0
-119 -191 0
-120 -192 0
-121 -225 0
-122 -226 0
-123 -227 0
-124 -228 0
-125 -229 0
-126 -230 0
-127 -231 0
-128 -232 0
-121 -345 0
-122 -346 0
-123 -347 0
-124 -348 0
-125 -349 0
-126 -350 0
-127 -351 0
-128 -352 0
-121 -153 0
-122 -154 0
-123 -155 0
-124 -156 0
-125 -157 0
-126 -158 0
-127 -159 0
-128 -160 0
-121 -361 0
-122 -362 0
-123 -363 0
-124 -364 0
-125 -365 0
-126 -366 0
-127 -367 0
-128 -368 0
-121 -177 0
-122 -178 0
-123 -179 0
-124 -180 0
-125 -181 0
-126 -182 0
-127 -183 0
-128 -184 0
-121 -233 0
-122 -234 0
-123 -235 0
-124 -236 0
-125 -237 0
-126 -238 0
-127 -239 0
-128 -240 0
-121 -353 0
-122 -354 0
-123 -355 0
-124 -356 0
-125 -357 0
-126 -358 0
-127 -359 0
-128 -360 0
-121 -129 0
-122 -130 0
-123 -131 0
-124 -132 0
-125 -133 0
-126 -134 0
-127 -135 0
-128 -136 0
-121 -273 0
-122 -274 0
-123 -275 0
-124 -276 0
-125 -277 0
-126 -278 0
-127 -279 0
-128 -280 0
-129 -361 0
-130 -362 0
-131 -363 0
-132 -364 0
-133 -365 0
-134 -366 0
-135 -367 0
-136 -368 0
-129 -177 0
-130 -178 0
-131 -179 0
-132 -180 0
-133 -181 0
-134 -182 0
-135 -183 0
-136 -184 0
-129 -169 0
-130 -170 0
-131 -171 0
-132 -172 0
-133 -173 0
-134 -174 0
-135 -175 0
-136 -176 0
-129 -201 0
-130 -202 0
-131 -203 0
-132 -204 0
-133 -205 0
-134 -206 0
-135 -207 0
-136 -208 0
-129 -273 0
-130 -274 0
-131 -275 0
-132 -276 0
-133 -277 0
-134 -278 0
-135 -279 0
-136 -280 0
-129 -297 0
-130 -298 0
-131 -299 0
-132 -300 0
-133 -301 0
-134 -302 0
-135 -303 0
-136 -304 0
-129 -137 0
-130 -138 0
-131 -139 0
-132 -140 0
-133 -141 0
-134 -142 0
-135 -143 0
-136 -144 0
-137 -177 0
-138 -178 0
-139 -179 0
-140 -180 0
-141 -181 0
-142 -182 0
-143 -183 0
-144 -184 0
-137 -145 0
-138 -146 0
-139 -147 0
-140 -148 0
-141 -149 0
-142 -150 0
-143 -151 0
-144 -152 0
-137 -217 0
-138 -218 0
-139 -219 0
-140 -220 0
-141 -221 0
-142 -222 0
-143 -223 0
-144 -224 0
-137 -169 0
-138 -170 0
-139 -171 0
-140 -172 0
-141 -173 0
-142 -174 0
-143 -175 0
-144 -176 0
-137 -201 0
-138 -202 0
-139 -203 0
-140 -204 0
-141 -205 0
-142 -206 0
-143 -207 0
-144 -208 0
-137 -281 0
-138 -282 0
-139 -283 0
-140 -284 0
-141 -285 0
-142 -286 0
-143 -287 0
-144 -288 0
-137 -249 0
-138 -250 0
-139 -251 0
-140 -252 0
-141 -253 0
-142 -254 0
-143 -255 0
-144 -256 0
-137 -185 0
-138 -186 0
-139 -187 0
-140 -188 0
-141 -189 0
-142 -190 0
-143 -191 0
-144 -192 0
-145 -177 0
-146 -178 0
-147 -179 0
-148 -180 0
-149 -181 0
-150 -182 0
-151 -183 0
-152 -184 0
-145 -217 0
-146 -218 0
-147 -219 0
-148 -220 0
-149 -221 0
-150 -222 0
-151 -223 0
-152 -224 0
-145 -281 0
-146 -282 0
-147 -283 0
-148 -284 0
-149 -285 0
-150 -286 0
-151 -287 0
-152 -288 0
-145 -249 0
-146 -250 0
-147 -251 0
-148 -252 0
-149 -253 0
-150 -254 0
-151 -255 0
-152 -256 0
-145 -353 0
-146 -354 0
-147 -355 0
-148 -356 0
-149 -357 0
-150 -358 0
-151 -359 0
-152 -360 0
-145 -161 0
-146 -162 0
-147 -163 0
-148 -164 0
-149 -165 0
-150 -166 0
-151 -167 0
-152 -168 0
-145 -289 0
-146 -290 0
-147 -291 0
-148 -292 0
-149 -293 0
-150 -294 0
-151 -295 0
-152 -296 0
-145 -337 0
-146 -338 0
-147 -339 0
-148 -340 0
-149 -341 0
-150 -342 0
-151 -343 0
-152 -344 0
-145 -185 0
-146 -186 0
-147 -187 0
-148 -188 0
-149 -189 0
-150 -190 0
-151 -191 0
-152 -192 0
-153 -225 0
-154 -226 0
-155 -227 0
-156 -228 0
-157 -229 0
-158 -230 0
-159 -231 0
-160 -232 0
-153 -345 0
-154 -346 0
-155 -347 0
-156 -348 0
-157 -349 0
-158 -350 0
-159 -351 0
-160 -352 0
-153 -353 0
-154 -354 0
-155 -355 0
-156 -356 0
-157 -357 0
-158 -358 0
-159 -359 0
-160 -360 0
-153 -313 0
-154 -314 0
-155 -315 0
-156 -316 0
-157 -317 0
-158 -318 0
-159 -319 0
-160 -320 0
-153 -161 0
-154 -162 0
-155 -163 0
-156 -164 0
-157 -165 0
-158 -166 0
-159 -167 0
-160 -168 0
-153 -289 0
-154 -290 0
-155 -291 0
-156 -292 0
-157 -293 0
-158 -294 0
-159 -295 0
-160 -296 0
-153 -177 0
-154 -178 0
-155 -179 0
-156 -180 0
-157 -181 0
-158 -182 0
-159 -183 0
-160 -184 0
-153 -217 0
-154 -218 0
-155 -219 0
-156 -220 0
-157 -221 0
-158 -222 0
-159 -223 0
-160 -224 0
-153 -265 0
-154 -266 0
-155 -267 0
-156 -268 0
-157 -269 0
-158 -270 0
-159 -271 0
-160 -272 0
-153 -281 0
-154 -282 0
-155 -283 0
-156 -284 0
-157 -285 0
-158 -286 0
-159 -287 0
-160 -288 0
-153 -337 0
-154 -338 0
-155 -339 0
-156 -340 0
-157 -341 0
-158 -342 0
-159 -343 0
-160 -344 0
-161 -225 0
-162 -226 0
-163 -227 0
-164 -228 0
-165 -229 0
-166 -230 0
-167 -231 0
-168 -232 0
-161 -345 0
-162 -346 0
-163 -347 0
-164 -348 0
-165 -349 0
-166 -350 0
-167 -351 0
-168 -352 0
-161 -217 0
-162 -218 0
-163 -219 0
-164 -220 0
-165 -221 0
-166 -222 0
-167 -223 0
-168 -224 0
-161 -353 0
-162 -354 0
-163 -355 0
-164 -356 0
-165 -357 0
-166 -358 0
-167 -359 0
-168 -360 0
-161 -241 0
-162 -242 0
-163 -243 0
-164 -244 0
-165 -245 0
-166 -246 0
-167 -247 0
-168 -248 0
-161 -265 0
-162 -266 0
-163 -267 0
-164 -268 0
-165 -269 0
-166 -270 0
-167 -271 0
-168 -272 0
-161 -281 0
-162 -282 0
-163 -283 0
-164 -284 0
-165 -285 0
-166 -286 0
-167 -287 0
-168 -288 0
-161 -249 0
-162 -250 0
-163 -251 0
-164 -252 0
-165 -253 0
-166 -254 0
-167 -255 0
-168 -256 0
-161 -313 0
-162 -314 0
-163 -315 0
-164 -316 0
-165 -317 0
-166 -318 0
-167 -319 0
-168 -320 0
-161 -289 0
-162 -290 0
-163 -291 0
-164 -292 0
-165 -293 0
-166 -294 0
-167 -295 0
-168 -296 0
-161 -337 0
-162 -338 0
-163 -339 0
-164 -340 0
-165 -341 0
-166 -342 0
-167 -343 0
-168 -344 0
-169 -361 0
-170 -362 0
-171 -363 0
-172 -364 0
-173 -365 0
-174 -366 0
-175 -367 0
-176 -368 0
-169 -201 0
-170 -202 0
-171 -203 0
-172 -204 0
-173 -205 0
-174 -206 0
-175 -207 0
-176 -208 0
-169 -297 0
-170 -298 0
-171 -299 0
-172 -300 0
-173 -301 0
-174 -302 0
-175 -303 0
-176 -304 0
-169 -273 0
-170 -274 0
-171 -275 0
-172 -276 0
-173 -277 0
-174 -278 0
-175 -279 0
-176 -280 0
-169 -209 0
-170 -210 0
-171 -211 0
-172 -212 0
-173 -213 0
-174 -214 0
-175 -215 0
-176 -216 0
-169 -193 0
-170 -194 0
-171 -195 0
-172 -196 0
-173 -197 0
-174 -198 0
-175 -199 0
-176 -200 0
-169 -329 0
-170 -330 0
-171 -331 0
-172 -332 0
-173 -333 0
-174 -334 0
-175 -335 0
-176 -336 0
-177 -345 0
-178 -346 0
-179 -347 0
-180 -348 0
-181 -349 0
-182 -350 0
-183 -351 0
-184 -352 0
-177 -361 0
-178 -362 0
-179 -363 0
-180 -364 0
-181 -365 0
-182 -366 0
-183 -367 0
-184 -368 0
-177 -217 0
-178 -218 0
-179 -219 0
-180 -220 0
-181 -221 0
-182 -222 0
-183 -223 0
-184 -224 0
-177 -353 0
-178 -354 0
-179 -355 0
-180 -356 0
-181 -357 0
-182 -358 0
-183 -359 0
-184 -360 0
-177 -281 0
-178 -282 0
-179 -283 0
-180 -284 0
-181 -285 0
-182 -286 0
-183 -287 0
-184 -288 0
-177 -289 0
-178 -290 0
-179 -291 0
-180 -292 0
-181 -293 0
-182 -294 0
-183 -295 0
-184 -296 0
-185 -201 0
-186 -202 0
-187 -203 0
-188 -204 0
-189 -205 0
-190 -206 0
-191 -207 0
-192 -208 0
-185 -241 0
-186 -242 0
-187 -243 0
-188 -244 0
-189 -245 0
-190 -246 0
-191 -247 0
-192 -248 0
-185 -265 0
-186 -266 0
-187 -267 0
-188 -268 0
-189 -269 0
-190 -270 0
-191 -271 0
-192 -272 0
-185 -257 0
-186 -258 0
-187 -259 0
-188 -260 0
-189 -261 0
-190 -262 0
-191 -263 0
-192 -264 0
-185 -281 0
-186 -282 0
-187 -283 0
-188 -284 0
-189 -285 0
-190 -286 0
-191 -287 0
-192 -288 0
-185 -249 0
-186 -250 0
-187 -251 0
-188 -252 0
-189 -253 0
-190 -254 0
-191 -255 0
-192 -256 0
-185 -337 0
-186 -338 0
-187 -339 0
-188 -340 0
-189 -341 0
-190 -342 0
-191 -343 0
-192 -344 0
-185 -193 0
-186 -194 0
-187 -195 0
-188 -196 0
-189 -197 0
-190 -198 0
-191 -199 0
-192 -200 0
-185 -329 0
-186 -330 0
-187 -331 0
-188 -332 0
-189 -333 0
-190 -334 0
-191 -335 0
-192 -336 0
-185 -321 0
-186 -322 0
-187 -323 0
-188 -324 0
-189 -325 0
-190 -326 0
-191 -327 0
-192 -328 0
-193 -201 0
-194 -202 0
-195 -203 0
-196 -204 0
-197 -205 0
-198 -206 0
-199 -207 0
-200 -208 0
-193 -241 0
-194 -242 0
-195 -243 0
-196 -244 0
-197 -245 0
-198 -246 0
-199 -247 0
-200 -248 0
-193 -257 0
-194 -258 0
-195 -259 0
-196 -260 0
-197 -261 0
-198 -262 0
-199 -263 0
-200 -264 0
-193 -209 0
-194 -210 0
-195 -211 0
-196 -212 0
-197 -213 0
-198 -214 0
-199 -215 0
-200 -216 0
-193 -305 0
-194 -306 0
-195 -307 0
-196 -308 0
-197 -309 0
-198 -310 0
-199 -311 0
-200 -312 0
-193 -329 0
-194 -330 0
-195 -331 0
-196 -332 0
-197 -333 0
-198 -334 0
-199 -335 0
-200 -336 0
-193 -321 0
-194 -322 0
-195 -323 0
-196 -324 0
-197 -325 0
-198 -326 0
-199 -327 0
-200 -328 0
-193 -297 0
-194 -298 0
-195 -299 0
-196 -300 0
-197 -301 0
-198 -302 0
-199 -303 0
-200 -304 0
-193 -273 0
-194 -274 0
-195 -275 0
-196 -276 0
-197 -277 0
-198 -278 0
-199 -279 0
-200 -280 0
-201 -329 0
-202 -330 0
-203 -331 0
-204 -332 0
-205 -333 0
-206 -334 0
-207 -335 0
-208 -336 0
-201 -297 0
-202 -298 0
-203 -299 0
-204 -300 0
-205 -301 0
-206 -302 0
-207 -303 0
-208 -304 0
-201 -257 0
-202 -258 0
-203 -259 0
-204 -260 0
-205 -261 0
-206 -262 0
-207 -263 0
-208 -264 0
-201 -209 0
-202 -210 0
-203 -211 0
-204 -212 0
-205 -213 0
-206 -214 0
-207 -215 0
-208 -216 0
-201 -321 0
-202 -322 0
-203 -323 0
-204 -324 0
-205 -325 0
-206 -326 0
-207 -327 0
-208 -328 0
-201 -273 0
-202 -274 0
-203 -275 0
-204 -276 0
-205 -277 0
-206 -278 0
-207 -279 0
-208 -280 0
-209 -233 0
-210 -234 0
-211 -235 0
-212 -236 0
-213 -237 0
-214 -238 0
-215 -239 0
-216 -240 0
-209 -241 0
-210 -242 0
-211 -243 0
-212 -244 0
-213 -245 0
-214 -246 0
-215 -247 0
-216 -248 0
-209 -257 0
-210 -258 0
-211 -259 0
-212 -260 0
-213 -261 0
-214 -262 0
-215 -263 0
-216 -264 0
-209 -305 0
-210 -306 0
-211 -307 0
-212 -308 0
-213 -309 0
-214 -310 0
-215 -311 0
-216 -312 0
-209 -321 0
-210 -322 0
-211 -323 0
-212 -324 0
-213 -325 0
-214 -326 0
-215 -327 0
-216 -328 0
-209 -297 0
-210 -298 0
-211 -299 0
-212 -300 0
-213 -301 0
-214 -302 0
-215 -303 0
-216 -304 0
-209 -329 0
-210 -330 0
-211 -331 0
-212 -332 0
-213 -333 0
-214 -334 0
-215 -335 0
-216 -336 0
-209 -273 0
-210 -274 0
-211 -275 0
-212 -276 0
-213 -277 0
-214 -278 0
-215 -279 0
-216 -280 0
-217 -345 0
-218 -346 0
-219 -347 0
-220 -348 0
-221 -349 0
-222 -350 0
-223 -351 0
-224 -352 0
-217 -353 0
-218 -354 0
-219 -355 0
-220 -356 0
-221 -357 0
-222 -358 0
-223 -359 0
-224 -360 0
-217 -281 0
-218 -282 0
-219 -283 0
-220 -284 0
-221 -285 0
-222 -286 0
-223 -287 0
-224 -288 0
-217 -289 0
-218 -290 0
-219 -291 0
-220 -292 0
-221 -293 0
-222 -294 0
-223 -295 0
-224 -296 0
-217 -249 0
-218 -250 0
-219 -251 0
-220 -252 0
-221 -253 0
-222 -254 0
-223 -255 0
-224 -256 0
-217 -337 0
-218 -338 0
-219 -339 0
-220 -340 0
-221 -341 0
-222 -342 0
-223 -343 0
-224 -344 0
-225 -345 0
-226 -346 0
-227 -347 0
-228 -348 0
-229 -349 0
-230 -350 0
-231 -351 0
-232 -352 0
-225 -313 0
-226 -314 0
-227 -315 0
-228 -316 0
-229 -317 0
-230 -318 0
-231 -319 0
-232 -320 0
-225 -233 0
-226 -234 0
-227 -235 0
-228 -236 0
-229 -237 0
-230 -238 0
-231 -239 0
-232 -240 0
-225 -353 0
-226 -354 0
-227 -355 0
-228 -356 0
-229 -357 0
-230 -358 0
-231 -359 0
-232 -360 0
-225 -241 0
-226 -242 0
-227 -243 0
-228 -244 0
-229 -245 0
-230 -246 0
-231 -247 0
-232 -248 0
-225 -265 0
-226 -266 0
-227 -267 0
-228 -268 0
-229 -269 0
-230 -270 0
-231 -271 0
-232 -272 0
-225 -305 0
-226 -306 0
-227 -307 0
-228 -308 0
-229 -309 0
-230 -310 0
-231 -311 0
-232 -312 0
-225 -289 0
-226 -290 0
-227 -291 0
-228 -292 0
-229 -293 0
-230 -294 0
-231 -295 0
-232 -296 0
-233 -345 0
-234 -346 0
-235 -347 0
-236 -348 0
-237 -349 0
-238 -350 0
-239 -351 0
-240 -352 0
-233 -361 0
-234 -362 0
-235 -363 0
-236 -364 0
-237 -365 0
-238 -366 0
-239 -367 0
-240 -368 0
-233 -305 0
-234 -306 0
-235 -307 0
-236 -308 0
-237 -309 0
-238 -310 0
-239 -311 0
-240 -312 0
-233 -297 0
-234 -298 0
-235 -299 0
-236 -300 0
-237 -301 0
-238 -302 0
-239 -303 0
-240 -304 0
-233 -273 0
-234 -274 0
-235 -275 0
-236 -276 0
-237 -277 0
-238 -278 0
-239 -279 0
-240 -280 0
-241 -265 0
-242 -266 0
-243 -267 0
-244 -268 0
-245 -269 0
-246 -270 0
-247 -271 0
-248 -272 0
-241 -257 0
-242 -258 0
-243 -259 0
-244 -260 0
-245 -261 0
-246 -262 0
-247 -263 0
-248 -264 0
-241 -305 0
-242 -306 0
-243 -307 0
-244 -308 0
-245 -309 0
-246 -310 0
-247 -311 0
-248 -312 0
-241 -321 0
-242 -322 0
-243 -323 0
-244 -324 0
-245 -325 0
-246 -326 0
-247 -327 0
-248 -328 0
-241 -249 0
-242 -250 0
-243 -251 0
-244 -252 0
-245 -253 0
-246 -254 0
-247 -255 0
-248 -256 0
-241 -313 0
-242 -314 0
-243 -315 0
-244 -316 0
-245 -317 0
-246 -318 0
-247 -319 0
-248 -320 0
-241 -337 0
-242 -338 0
-243 -339 0
-244 -340 0
-245 -341 0
-246 -342 0
-247 -343 0
-248 -344 0
-241 -329 0
-242 -330 0
-243 -331 0
-244 -332 0
-245 -333 0
-246 -334 0
-247 -335 0
-248 -336 0
-249 -265 0
-250 -266 0
-251 -267 0
-252 -268 0
-253 -269 0
-254 -270 0
-255 -271 0
-256 -272 0
-249 -257 0
-250 -258 0
-251 -259 0
-252 -260 0
-253 -261 0
-254 -262 0
-255 -263 0
-256 -264 0
-249 -281 0
-250 -282 0
-251 -283 0
-252 -284 0
-253 -285 0
-254 -286 0
-255 -287 0
-256 -288 0
-249 -337 0
-250 -338 0
-251 -339 0
-252 -340 0
-253 -341 0
-254 -342 0
-255 -343 0
-256 -344 0
-249 -289 0
-250 -290 0
-251 -291 0
-252 -292 0
-253 -293 0
-254 -294 0
-255 -295 0
-256 -296 0
-249 -329 0
-250 -330 0
-251 -331 0
-252 -332 0
-253 -333 0
-254 -334 0
-255 -335 0
-256 -336 0
-257 -265 0
-258 -266 0
-259 -267 0
-260 -268 0
-261 -269 0
-262 -270 0
-263 -271 0
-264 -272 0
-257 -321 0
-258 -322 0
-259 -323 0
-260 -324 0
-261 -325 0
-262 -326 0
-263 -327 0
-264 -328 0
-257 -329 0
-258 -330 0
-259 -331 0
-260 -332 0
-261 -333 0
-262 -334 0
-263 -335 0
-264 -336 0
-257 -305 0
-258 -306 0
-259 -307 0
-260 -308 0
-261 -309 0
-262 -310 0
-263 -311 0
-264 -312 0
-257 -337 0
-258 -338 0
-259 -339 0
-260 -340 0
-261 -341 0
-262 -342 0
-263 -343 0
-264 -344 0
-265 -313 0
-266 -314 0
-267 -315 0
-268 -316 0
-269 -317 0
-270 -318 0
-271 -319 0
-272 -320 0
-265 -337 0
-266 -338 0
-267 -339 0
-268 -340 0
-269 -341 0
-270 -342 0
-271 -343 0
-272 -344 0
-265 -281 0
-266 -282 0
-267 -283 0
-268 -284 0
-269 -285 0
-270 -286 0
-271 -287 0
-272 -288 0
-265 -305 0
-266 -306 0
-267 -307 0
-268 -308 0
-269 -309 0
-270 -310 0
-271 -311 0
-272 -312 0
-265 -289 0
-266 -290 0
-267 -291 0
-268 -292 0
-269 -293 0
-270 -294 0
-271 -295 0
-272 -296 0
-265 -321 0
-266 -322 0
-267 -323 0
-268 -324 0
-269 -325 0
-270 -326 0
-271 -327 0
-272 -328 0
-273 -361 0
-274 -362 0
-275 -363 0
-276 -364 0
-277 -365 0
-278 -366 0
-279 -367 0
-280 -368 0
-273 -297 0
-274 -298 0
-275 -299 0
-276 -300 0
-277 -301 0
-278 -302 0
-279 -303 0
-280 -304 0
-281 -353 0
-282 -354 0
-283 -355 0
-284 -356 0
-285 -357 0
-286 -358 0
-287 -359 0
-288 -360 0
-281 -289 0
-282 -290 0
-283 -291 0
-284 -292 0
-285 -293 0
-286 -294 0
-287 -295 0
-288 -296 0
-281 -337 0
-282 -338 0
-283 -339 0
-284 -340 0
-285 -341 0
-286 -342 0
-287 -343 0
-288 -344 0
-281 -313 0
-282 -314 0
-283 -315 0
-284 -316 0
-285 -317 0
-286 -318 0
-287 -319 0
-288 -320 0
-289 -345 0
-290 -346 0
-291 -347 0
-292 -348 0
-293 -349 0
-294 -350 0
-295 -351 0
-296 -352 0
-289 -353 0
-290 -354 0
-291 -355 0
-292 -356 0
-293 -357 0
-294 -358 0
-295 -359 0
-296 -360 0
-289 -313 0
-290 -314 0
-291 -315 0
-292 -316 0
-293 -317 0
-294 -318 0
-295 -319 0
-296 -320 0
-289 -337 0
-290 -338 0
-291 -339 0
-292 -340 0
-293 -341 0
-294 -342 0
-295 -343 0
-296 -344 0
-297 -361 0
-298 -362 0
-299 -363 0
-300 -364 0
-301 -365 0
-302 -366 0
-303 -367 0
-304 -368 0
-297 -305 0
-298 -306 0
-299 -307 0
-300 -308 0
-301 -309 0
-302 -310 0
-303 -311 0
-304 -312 0
-297 -329 0
-298 -330 0
-299 -331 0
-300 -332 0
-301 -333 0
-302 -334 0
-303 -335 0
-304 -336 0
-297 -321 0
-298 -322 0
-299 -323 0
-300 -324 0
-301 -325 0
-302 -326 0
-303 -327 0
-304 -328 0
-305 -313 0
-306 -314 0
-307 -315 0
-308 -316 0
-309 -317 0
-310 -318 0
-311 -319 0
-312 -320 0
-305 -321 0
-306 -322 0
-307 -323 0
-308 -324 0
-309 -325 0
-310 -326 0
-311 -327 0
-312 -328 0
-305 -329 0
-306 -330 0
-307 -331 0
-308 -332 0
-309 -333 0
-310 -334 0
-311 -335 0
-312 -336 0
-313 -345 0
-314 -346 0
-315 -347 0
-316 -348 0
-317 -349 0
-318 -350 0
-319 -351 0
-320 -352 0
-313 -353 0
-314 -354 0
-315 -355 0
-316 -356 0
-317 -357 0
-318 -358 0
-319 -359 0
-320 -360 0
-313 -337 0
-314 -338 0
-315 -339 0
-316 -340 0
-317 -341 0
-318 -342 0
-319 -343 0
-320 -344 0
-321 -329 0
-322 -330 0
-323 -331 0
-324 -332 0
-325 -333 0
-326 -334 0
-327 -335 0
-328 -336 0
-345 -353 0
-346 -354 0
-347 -355 0
-348 -356 0
-349 -357 0
-350 -358 0
-351 -359 0
-352 -360 0
-345 -361 0
-346 -362 0
-347 -363 0
-348 -364 0
-349 -365 0
-350 -366 0
-351 -367 0
-352 -368 0
-353 -361 0
-354 -362 0
-355 -363 0
-356 -364 0
-357 -365 0
-358 -366 0
-359 -367 0
-360 -368 0
1 2 3 4 5 6 7 8 0
9 10 11 12 13 14 15 16 0
17 18 19 20 21 22 23 24 0
25 26 27 28 29 30 31 32 0
33 34 35 36 37 38 39 40 0
41 42 43 44 45 46 47 48 0
49 50 51 52 53 54 55 56 0
57 58 59 60 61 62 63 64 0
65 66 67 68 69 70 71 72 0
73 74 75 76 77 78 79 80 0
81 82 83 84 85 86 87 88 0
89 90 91 92 93 94 95 96 0
97 98 99 100 101 102 103 104 0
105 106 107 108 109 110 111 112 0
113 114 115 116 117 118 119 120 0
121 122 123 124 125 126 127 128 0
129 130 131 132 133 134 135 136 0
137 138 139 140 141 142 143 144 0
145 146 147 148 149 150 151 152 0
153 154 155 156 157 158 159 160 0
161 162 163 164 165 166 167 168 0
169 170 171 172 173 174 175 176 0
177 178 179 180 181 182 183 184 0
185 186 187 188 189 190 191 192 0
193 194 195 196 197 198 199 200 0
201 202 203 204 205 206 207 208 0
209 210 211 212 213 214 215 216 0
217 218 219 220 221 222 223 224 0
225 226 227 228 229 230 231 232 0
233 234 235 236 237 238 239 240 0
241 242 243 244 245 246 247 248 0
249 250 251 252 253 254 255 256 0
257 258 259 260 261 262 263 264 0
265 266 267 268 269 270 271 272 0
273 274 275 276 277 278 279 280 0
281 282 283 284 285 286 287 288 0
289 290 291 292 293 294 295 296 0
297 298 299 300 301 302 303 304 0
305 306 307 308 309 310 311 312 0
313 314 315 316 317 318 319 320 0
321 322 323 324 325 326 327 328 0
329 330 331 332 333 334 335 336 0
337 338 339 340 341 342 343 344 0
345 346 347 348 349 350 351 352 0
353 354 355 356 357 358 359 360 0
361 362 363 364 365 366 367 368 0
